c Result of efficient AIG-to-CNF conversion using package CNF
p cnf 260 879
-2 229 3 186 188 0
-2 -229 3 -186 188 0
2 -188 0
2 229 -186 0
2 -3 0
2 -229 186 0
3 228 -4 0
3 -228 4 0
-3 -228 -4 0
-3 228 4 0
4 5 -98 0
4 -5 98 0
-4 -5 -98 0
-4 5 98 0
5 196 -6 0
5 -196 6 0
-5 -196 -6 0
-5 196 6 0
6 7 -39 0
6 -7 39 0
-6 -7 -39 0
-6 7 39 0
7 -228 8 0
7 228 -8 0
-7 228 8 0
-7 -228 -8 0
-8 196 9 0
-8 -196 -9 0
8 -196 9 0
8 196 -9 0
-9 197 10 0
9 -197 0
9 -10 0
-10 198 11 0
10 -198 0
10 -11 0
-11 199 12 0
11 -199 0
11 -12 0
-12 200 13 0
12 -200 0
12 -13 0
-13 201 14 0
13 -201 0
13 -14 0
-14 202 15 0
14 -202 0
14 -15 0
-15 203 16 0
15 -203 0
15 -16 0
-16 204 17 0
16 -204 0
16 -17 0
-17 205 18 0
17 -205 0
17 -18 0
-18 206 19 0
18 -206 0
18 -19 0
-19 207 20 0
19 -207 0
19 -20 0
-20 208 21 0
20 -208 0
20 -21 0
-21 209 22 0
21 -209 0
21 -22 0
-22 210 23 0
22 -210 0
22 -23 0
-23 211 24 0
23 -211 0
23 -24 0
-24 212 25 0
24 -212 0
24 -25 0
-25 213 26 0
25 -213 0
25 -26 0
-26 214 27 0
26 -214 0
26 -27 0
-27 215 28 0
27 -215 0
27 -28 0
-28 216 29 0
28 -216 0
28 -29 0
-29 217 30 0
29 -217 0
29 -30 0
-30 218 31 0
30 -218 0
30 -31 0
-31 219 32 0
31 -219 0
31 -32 0
-32 220 33 0
32 -220 0
32 -33 0
-33 221 34 0
33 -221 0
33 -34 0
-34 222 35 0
34 -222 0
34 -35 0
-35 223 36 0
35 -223 0
35 -36 0
-36 224 37 0
36 -224 0
36 -37 0
-37 225 38 0
37 -225 0
37 -38 0
-38 226 227 0
38 -226 0
38 -227 0
39 -229 -40 0
39 -40 -41 0
39 -229 -41 0
-39 229 41 0
-39 40 41 0
-39 229 40 0
40 -197 10 0
40 197 -10 0
-40 197 10 0
-40 -197 -10 0
41 -230 -42 0
41 -42 -43 0
41 -230 -43 0
-41 230 43 0
-41 42 43 0
-41 230 42 0
42 -198 11 0
42 198 -11 0
-42 198 11 0
-42 -198 -11 0
43 -231 -44 0
43 -44 -45 0
43 -231 -45 0
-43 231 45 0
-43 44 45 0
-43 231 44 0
44 -199 12 0
44 199 -12 0
-44 199 12 0
-44 -199 -12 0
45 -232 -46 0
45 -46 -47 0
45 -232 -47 0
-45 232 47 0
-45 46 47 0
-45 232 46 0
46 -200 13 0
46 200 -13 0
-46 200 13 0
-46 -200 -13 0
47 -233 -48 0
47 -48 -49 0
47 -233 -49 0
-47 233 49 0
-47 48 49 0
-47 233 48 0
48 -201 14 0
48 201 -14 0
-48 201 14 0
-48 -201 -14 0
49 -234 -50 0
49 -50 -51 0
49 -234 -51 0
-49 234 51 0
-49 50 51 0
-49 234 50 0
50 -202 15 0
50 202 -15 0
-50 202 15 0
-50 -202 -15 0
51 -235 -52 0
51 -52 -53 0
51 -235 -53 0
-51 235 53 0
-51 52 53 0
-51 235 52 0
52 -203 16 0
52 203 -16 0
-52 203 16 0
-52 -203 -16 0
53 -236 -54 0
53 -54 -55 0
53 -236 -55 0
-53 236 55 0
-53 54 55 0
-53 236 54 0
54 -204 17 0
54 204 -17 0
-54 204 17 0
-54 -204 -17 0
55 -237 -56 0
55 -56 -57 0
55 -237 -57 0
-55 237 57 0
-55 56 57 0
-55 237 56 0
56 -205 18 0
56 205 -18 0
-56 205 18 0
-56 -205 -18 0
57 -238 -58 0
57 -58 -59 0
57 -238 -59 0
-57 238 59 0
-57 58 59 0
-57 238 58 0
58 -206 19 0
58 206 -19 0
-58 206 19 0
-58 -206 -19 0
59 -239 -60 0
59 -60 -61 0
59 -239 -61 0
-59 239 61 0
-59 60 61 0
-59 239 60 0
60 -207 20 0
60 207 -20 0
-60 207 20 0
-60 -207 -20 0
61 -240 -62 0
61 -62 -63 0
61 -240 -63 0
-61 240 63 0
-61 62 63 0
-61 240 62 0
62 -208 21 0
62 208 -21 0
-62 208 21 0
-62 -208 -21 0
63 -241 -64 0
63 -64 -65 0
63 -241 -65 0
-63 241 65 0
-63 64 65 0
-63 241 64 0
64 -209 22 0
64 209 -22 0
-64 209 22 0
-64 -209 -22 0
65 -242 -66 0
65 -66 -67 0
65 -242 -67 0
-65 242 67 0
-65 66 67 0
-65 242 66 0
66 -210 23 0
66 210 -23 0
-66 210 23 0
-66 -210 -23 0
67 -243 -68 0
67 -68 -69 0
67 -243 -69 0
-67 243 69 0
-67 68 69 0
-67 243 68 0
68 -211 24 0
68 211 -24 0
-68 211 24 0
-68 -211 -24 0
69 -244 -70 0
69 -70 -71 0
69 -244 -71 0
-69 244 71 0
-69 70 71 0
-69 244 70 0
70 -212 25 0
70 212 -25 0
-70 212 25 0
-70 -212 -25 0
71 -245 -72 0
71 -72 -73 0
71 -245 -73 0
-71 245 73 0
-71 72 73 0
-71 245 72 0
72 -213 26 0
72 213 -26 0
-72 213 26 0
-72 -213 -26 0
73 -246 -74 0
73 -74 -75 0
73 -246 -75 0
-73 246 75 0
-73 74 75 0
-73 246 74 0
74 -214 27 0
74 214 -27 0
-74 214 27 0
-74 -214 -27 0
75 -247 -76 0
75 -76 -77 0
75 -247 -77 0
-75 247 77 0
-75 76 77 0
-75 247 76 0
76 -215 28 0
76 215 -28 0
-76 215 28 0
-76 -215 -28 0
77 -248 -78 0
77 -78 -79 0
77 -248 -79 0
-77 248 79 0
-77 78 79 0
-77 248 78 0
78 -216 29 0
78 216 -29 0
-78 216 29 0
-78 -216 -29 0
79 -249 -80 0
79 -80 -81 0
79 -249 -81 0
-79 249 81 0
-79 80 81 0
-79 249 80 0
80 -217 30 0
80 217 -30 0
-80 217 30 0
-80 -217 -30 0
81 -250 -82 0
81 -82 -83 0
81 -250 -83 0
-81 250 83 0
-81 82 83 0
-81 250 82 0
82 -218 31 0
82 218 -31 0
-82 218 31 0
-82 -218 -31 0
83 -251 -84 0
83 -84 -85 0
83 -251 -85 0
-83 251 85 0
-83 84 85 0
-83 251 84 0
84 -219 32 0
84 219 -32 0
-84 219 32 0
-84 -219 -32 0
85 -252 -86 0
85 -86 -87 0
85 -252 -87 0
-85 252 87 0
-85 86 87 0
-85 252 86 0
86 -220 33 0
86 220 -33 0
-86 220 33 0
-86 -220 -33 0
87 -253 -88 0
87 -88 -89 0
87 -253 -89 0
-87 253 89 0
-87 88 89 0
-87 253 88 0
88 -221 34 0
88 221 -34 0
-88 221 34 0
-88 -221 -34 0
89 -254 -90 0
89 -90 -91 0
89 -254 -91 0
-89 254 91 0
-89 90 91 0
-89 254 90 0
90 -222 35 0
90 222 -35 0
-90 222 35 0
-90 -222 -35 0
91 -255 -92 0
91 -92 -93 0
91 -255 -93 0
-91 255 93 0
-91 92 93 0
-91 255 92 0
92 -223 36 0
92 223 -36 0
-92 223 36 0
-92 -223 -36 0
93 -256 -94 0
93 -94 -95 0
93 -256 -95 0
-93 256 95 0
-93 94 95 0
-93 256 94 0
94 -224 37 0
94 224 -37 0
-94 224 37 0
-94 -224 -37 0
95 -257 -96 0
95 -96 -97 0
95 -257 -97 0
-95 257 97 0
-95 96 97 0
-95 257 96 0
96 -225 38 0
96 225 -38 0
-96 225 38 0
-96 -225 -38 0
97 226 -227 -259 0
97 -226 227 -258 0
97 226 -227 -258 0
97 -226 -258 -259 0
-97 226 227 0
-97 -226 -227 259 0
-97 -226 258 0
-97 258 259 0
98 -197 -101 0
98 -197 -99 0
98 -99 -101 0
-98 99 101 0
-98 197 101 0
-98 197 99 0
-99 -41 -100 0
-99 41 100 0
99 41 -100 0
99 -41 100 0
100 229 -40 0
100 -229 40 0
-100 -229 -40 0
-100 229 40 0
101 -198 -104 0
101 -198 -102 0
101 -102 -104 0
-101 102 104 0
-101 198 104 0
-101 198 102 0
-102 -43 -103 0
-102 43 103 0
102 43 -103 0
102 -43 103 0
103 230 -42 0
103 -230 42 0
-103 -230 -42 0
-103 230 42 0
104 -199 -107 0
104 -199 -105 0
104 -105 -107 0
-104 105 107 0
-104 199 107 0
-104 199 105 0
-105 -45 -106 0
-105 45 106 0
105 45 -106 0
105 -45 106 0
106 231 -44 0
106 -231 44 0
-106 -231 -44 0
-106 231 44 0
107 -200 -110 0
107 -200 -108 0
107 -108 -110 0
-107 108 110 0
-107 200 110 0
-107 200 108 0
-108 -47 -109 0
-108 47 109 0
108 47 -109 0
108 -47 109 0
109 232 -46 0
109 -232 46 0
-109 -232 -46 0
-109 232 46 0
110 -201 -113 0
110 -201 -111 0
110 -111 -113 0
-110 111 113 0
-110 201 113 0
-110 201 111 0
-111 -49 -112 0
-111 49 112 0
111 49 -112 0
111 -49 112 0
112 233 -48 0
112 -233 48 0
-112 -233 -48 0
-112 233 48 0
113 -202 -116 0
113 -202 -114 0
113 -114 -116 0
-113 114 116 0
-113 202 116 0
-113 202 114 0
-114 -51 -115 0
-114 51 115 0
114 51 -115 0
114 -51 115 0
115 234 -50 0
115 -234 50 0
-115 -234 -50 0
-115 234 50 0
116 -203 -119 0
116 -203 -117 0
116 -117 -119 0
-116 117 119 0
-116 203 119 0
-116 203 117 0
-117 -53 -118 0
-117 53 118 0
117 53 -118 0
117 -53 118 0
118 235 -52 0
118 -235 52 0
-118 -235 -52 0
-118 235 52 0
119 -204 -122 0
119 -204 -120 0
119 -120 -122 0
-119 120 122 0
-119 204 122 0
-119 204 120 0
-120 -55 -121 0
-120 55 121 0
120 55 -121 0
120 -55 121 0
121 236 -54 0
121 -236 54 0
-121 -236 -54 0
-121 236 54 0
122 -205 -125 0
122 -205 -123 0
122 -123 -125 0
-122 123 125 0
-122 205 125 0
-122 205 123 0
-123 -57 -124 0
-123 57 124 0
123 57 -124 0
123 -57 124 0
124 237 -56 0
124 -237 56 0
-124 -237 -56 0
-124 237 56 0
125 -206 -128 0
125 -206 -126 0
125 -126 -128 0
-125 126 128 0
-125 206 128 0
-125 206 126 0
-126 -59 -127 0
-126 59 127 0
126 59 -127 0
126 -59 127 0
127 238 -58 0
127 -238 58 0
-127 -238 -58 0
-127 238 58 0
128 -207 -131 0
128 -207 -129 0
128 -129 -131 0
-128 129 131 0
-128 207 131 0
-128 207 129 0
-129 -61 -130 0
-129 61 130 0
129 61 -130 0
129 -61 130 0
130 239 -60 0
130 -239 60 0
-130 -239 -60 0
-130 239 60 0
131 -208 -134 0
131 -208 -132 0
131 -132 -134 0
-131 132 134 0
-131 208 134 0
-131 208 132 0
-132 -63 -133 0
-132 63 133 0
132 63 -133 0
132 -63 133 0
133 240 -62 0
133 -240 62 0
-133 -240 -62 0
-133 240 62 0
134 -209 -137 0
134 -209 -135 0
134 -135 -137 0
-134 135 137 0
-134 209 137 0
-134 209 135 0
-135 -65 -136 0
-135 65 136 0
135 65 -136 0
135 -65 136 0
136 241 -64 0
136 -241 64 0
-136 -241 -64 0
-136 241 64 0
137 -210 -140 0
137 -210 -138 0
137 -138 -140 0
-137 138 140 0
-137 210 140 0
-137 210 138 0
-138 -67 -139 0
-138 67 139 0
138 67 -139 0
138 -67 139 0
139 242 -66 0
139 -242 66 0
-139 -242 -66 0
-139 242 66 0
140 -211 -143 0
140 -211 -141 0
140 -141 -143 0
-140 141 143 0
-140 211 143 0
-140 211 141 0
-141 -69 -142 0
-141 69 142 0
141 69 -142 0
141 -69 142 0
142 243 -68 0
142 -243 68 0
-142 -243 -68 0
-142 243 68 0
143 -212 -146 0
143 -212 -144 0
143 -144 -146 0
-143 144 146 0
-143 212 146 0
-143 212 144 0
-144 -71 -145 0
-144 71 145 0
144 71 -145 0
144 -71 145 0
145 244 -70 0
145 -244 70 0
-145 -244 -70 0
-145 244 70 0
146 -213 -149 0
146 -213 -147 0
146 -147 -149 0
-146 147 149 0
-146 213 149 0
-146 213 147 0
-147 -73 -148 0
-147 73 148 0
147 73 -148 0
147 -73 148 0
148 245 -72 0
148 -245 72 0
-148 -245 -72 0
-148 245 72 0
149 -214 -152 0
149 -214 -150 0
149 -150 -152 0
-149 150 152 0
-149 214 152 0
-149 214 150 0
-150 -75 -151 0
-150 75 151 0
150 75 -151 0
150 -75 151 0
151 246 -74 0
151 -246 74 0
-151 -246 -74 0
-151 246 74 0
152 -215 -155 0
152 -215 -153 0
152 -153 -155 0
-152 153 155 0
-152 215 155 0
-152 215 153 0
-153 -77 -154 0
-153 77 154 0
153 77 -154 0
153 -77 154 0
154 247 -76 0
154 -247 76 0
-154 -247 -76 0
-154 247 76 0
155 -216 -158 0
155 -216 -156 0
155 -156 -158 0
-155 156 158 0
-155 216 158 0
-155 216 156 0
-156 -79 -157 0
-156 79 157 0
156 79 -157 0
156 -79 157 0
157 248 -78 0
157 -248 78 0
-157 -248 -78 0
-157 248 78 0
158 -217 -161 0
158 -217 -159 0
158 -159 -161 0
-158 159 161 0
-158 217 161 0
-158 217 159 0
-159 -81 -160 0
-159 81 160 0
159 81 -160 0
159 -81 160 0
160 249 -80 0
160 -249 80 0
-160 -249 -80 0
-160 249 80 0
161 -218 -162 0
161 -162 -164 0
161 -218 -164 0
-161 218 164 0
-161 162 164 0
-161 218 162 0
162 83 -163 0
162 -83 163 0
-162 -83 -163 0
-162 83 163 0
163 250 -82 0
163 -250 82 0
-163 -250 -82 0
-163 250 82 0
164 -219 -165 0
164 -165 -167 0
164 -219 -167 0
-164 219 167 0
-164 165 167 0
-164 219 165 0
165 85 -166 0
165 -85 166 0
-165 -85 -166 0
-165 85 166 0
166 251 -84 0
166 -251 84 0
-166 -251 -84 0
-166 251 84 0
167 -220 -168 0
167 -168 -170 0
167 -220 -170 0
-167 220 170 0
-167 168 170 0
-167 220 168 0
168 87 -169 0
168 -87 169 0
-168 -87 -169 0
-168 87 169 0
169 252 -86 0
169 -252 86 0
-169 -252 -86 0
-169 252 86 0
170 -221 -171 0
170 -171 -173 0
170 -221 -173 0
-170 221 173 0
-170 171 173 0
-170 221 171 0
171 89 -172 0
171 -89 172 0
-171 -89 -172 0
-171 89 172 0
172 253 -88 0
172 -253 88 0
-172 -253 -88 0
-172 253 88 0
173 -222 -174 0
173 -174 -176 0
173 -222 -176 0
-173 222 176 0
-173 174 176 0
-173 222 174 0
174 91 -175 0
174 -91 175 0
-174 -91 -175 0
-174 91 175 0
175 254 -90 0
175 -254 90 0
-175 -254 -90 0
-175 254 90 0
176 -223 -177 0
176 -177 -179 0
176 -223 -179 0
-176 223 179 0
-176 177 179 0
-176 223 177 0
177 93 -178 0
177 -93 178 0
-177 -93 -178 0
-177 93 178 0
178 255 -92 0
178 -255 92 0
-178 -255 -92 0
-178 255 92 0
179 -224 -180 0
179 -180 -182 0
179 -224 -182 0
-179 224 182 0
-179 180 182 0
-179 224 180 0
180 95 -181 0
180 -95 181 0
-180 -95 -181 0
-180 95 181 0
181 256 -94 0
181 -256 94 0
-181 -256 -94 0
-181 256 94 0
182 -225 -183 0
182 -183 -185 0
182 -225 -185 0
-182 225 185 0
-182 183 185 0
-182 225 183 0
183 97 -184 0
183 -97 184 0
-183 -97 -184 0
-183 97 184 0
184 257 -96 0
184 -257 96 0
-184 -257 -96 0
-184 257 96 0
185 -226 258 0
185 -226 -227 259 0
185 -227 258 259 0
-185 226 -259 0
-185 -258 -259 0
-185 226 -258 0
-185 227 -258 0
-185 226 227 0
186 101 -187 0
186 -101 187 0
-186 -101 -187 0
-186 101 187 0
187 -197 99 0
187 197 -99 0
-187 197 99 0
-187 -197 -99 0
-188 -230 -189 191 0
-188 230 189 191 0
188 -191 0
188 -230 189 0
188 230 -189 0
189 104 -190 0
189 -104 190 0
-189 -104 -190 0
-189 104 190 0
190 -198 102 0
190 198 -102 0
-190 198 102 0
-190 -198 -102 0
-191 -231 232 -192 194 0
-191 231 -232 192 -194 0
-191 231 232 192 194 0
-191 -231 -232 -192 -194 0
191 -231 192 0
191 231 -192 0
191 232 -194 0
191 -232 194 0
192 107 -193 0
192 -107 193 0
-192 -107 -193 0
-192 107 193 0
193 -199 105 0
193 199 -105 0
-193 199 105 0
-193 -199 -105 0
194 110 -195 0
194 -110 195 0
-194 -110 -195 0
-194 110 195 0
195 -200 108 0
195 200 -108 0
-195 200 108 0
-195 -200 -108 0
-260 0
2 0

